<number of tasks>
50

<cycle time>
1000

<order strength>
0.598


<task times>
1 285
2 52
3 174
4 213
5 40
6 126
7 127
8 133
9 71
10 320
11 86
12 193
13 267
14 40
15 482
16 241
17 292
18 530
19 26
20 476
21 279
22 63
23 548
24 177
25 118
26 454
27 338
28 135
29 247
30 28
31 277
32 209
33 149
34 93
35 126
36 40
37 201
38 474
39 107
40 222
41 518
42 141
43 188
44 74
45 481
46 81
47 557
48 224
49 160
50 39

<precedence relations>
1,5
2,6
3,7
4,7
5,8
6,9
7,10
7,11
7,12
7,13
8,14
9,15
10,17
11,18
12,16
12,19
12,20
13,19
13,20
14,21
15,25
16,23
17,26
18,24
19,22
19,25
19,26
19,27
20,25
20,26
20,27
21,29
22,28
23,30
24,30
25,30
25,31
25,32
25,33
26,30
26,31
26,32
26,33
27,30
27,31
27,32
27,33
28,35
29,34
30,35
30,36
30,37
30,38
31,35
31,36
31,37
31,38
32,35
32,36
32,37
32,38
33,35
33,36
33,37
33,38
34,40
35,39
35,40
35,41
36,39
36,40
36,41
37,39
37,40
37,41
38,39
38,40
38,41
39,42
39,43
39,44
40,43
40,46
41,43
41,44
42,45
43,48
43,50
44,46
44,47
44,48
45,49
46,49
46,50
47,50

<end>
